SYSTEM = CO molecule in a box
ISMEAR = 0 ! Gaussian smearing
NSW = 5    ! 5 ionic steps
IBRION = 2 ! use the conjugate gradient algorithm
