Pt 
 1.0000000000000000
     8.3155757467537992    0.0000000000000000    0.0000000000000000
     4.1577878733768996    7.2014998437825426    0.0000000000000000
     0.0000000000000000    0.0000000000000000   24.5264261104466641
 Pt 
  27
Cartesian
  1.3859292911256331  0.8001666493091714 10.0000000000000000
  4.1577878733768996  0.8001666493091714 10.0000000000000000
  6.9296464556281663  0.8001666493091714 10.0000000000000000
  2.7718585822512662  3.2006665972366855 10.0000000000000000
  5.5437171645025325  3.2006665972366855 10.0000000000000000
  8.3155757467537992  3.2006665972366855 10.0000000000000000
  4.1577878733768996  5.6011665451642001 10.0000000000000000
  6.9296464556281654  5.6011665451642001 10.0000000000000000
  9.7015050378794321  5.6011665451642001 10.0000000000000000
 -0.0000000000000000  1.6003332986183427 12.2632130552233320
  2.7718585822512662  1.6003332986183427 12.2632130552233320
  5.5437171645025325  1.6003332986183427 12.2632130552233320
  1.3859292911256329  4.0008332465458567 12.2632130552233320
  4.1577878733768996  4.0008332465458567 12.2632130552233320
  6.9296464556281654  4.0008332465458567 12.2632130552233320
  2.7718585822512662  6.4013331944733709 12.2632130552233320
  5.5437171645025325  6.4013331944733709 12.2632130552233320
  8.3155757467537992  6.4013331944733709 12.2632130552233320
  0.0000000000000000  0.0000000000000000 14.5264261104466659
  2.7718585822512662  0.0000000000000000 14.5264261104466659
  5.5437171645025325  0.0000000000000000 14.5264261104466659
  1.3859292911256331  2.4004999479275142 14.5264261104466659
  4.1577878733768996  2.4004999479275142 14.5264261104466659
  6.9296464556281654  2.4004999479275142 14.5264261104466659
  2.7718585822512662  4.8009998958550284 14.5264261104466659
  5.5437171645025325  4.8009998958550284 14.5264261104466659
  8.3155757467537992  4.8009998958550284 14.5264261104466659
