Pt  O 
 1.0000000
     5.5430000    0.0000000    0.0000000
     2.7709999    4.7999999    0.0000000
     0.0000000    0.0000000   26.7890000
 Pt  O  
  16   1
Selective dynamics
Cartesian
  0.0000000  0.0000000 10.0000000   F   F   F
  2.7709999  0.0000000 10.0000000   F   F   F
  1.3850000  2.3999999 10.0000000   F   F   F
  4.1570000  2.3999999 10.0000000   F   F   F
  1.3850000  0.8000000 12.2629999   F   F   F
  4.1570000  0.8000000 12.2629999   F   F   F
  2.7709999  3.2000000 12.2629999   F   F   F
  5.5430000  3.2000000 12.2629999   F   F   F
 -0.0000000  1.6000000 14.5259999   T   T   T
  2.7709999  1.6000000 14.5259999   T   T   T
  1.3850000  4.0000000 14.5259999   T   T   T
  4.1570000  4.0000000 14.5259999   T   T   T
  0.0000000  0.0000000 16.7890000   T   T   T
  2.7709999  0.0000000 16.7890000   T   T   T
  1.3850000  2.3999999 16.7890000   T   T   T
  4.1570000  2.3999999 16.7890000   T   T   T
  1.3999999  1.2000000 18.3000000   T   T   T
