Pt 
 1.0000000000000000
     3.9231600000000002    0.0000000000000000    0.0000000000000000
     0.0000000000000000    3.9231600000000002    0.0000000000000000
     0.0000000000000000    0.0000000000000000    3.9231600000000002
 Pt 
   4
Cartesian
  0.0000000000000000  0.0000000000000000  0.0000000000000000
  0.0000000000000000  1.9615800000000001  1.9615800000000001
  1.9615800000000001  0.0000000000000000  1.9615800000000001
  1.9615800000000001  1.9615800000000001  0.0000000000000000
